
Gurobi 10.0.1 (win64) logging started Thu Oct  5 12:32:06 2023

Set parameter LogFile to value "./results//log/BA_12_makespan_heurTrue.log"
Gurobi Optimizer version 10.0.1 build v10.0.1rc0 (win64)

CPU model: AMD Ryzen 7 3700X 8-Core Processor, instruction set [SSE2|AVX|AVX2]
Thread count: 8 physical cores, 16 logical processors, using up to 16 threads

Optimize a model with 463 rows, 316 columns and 1886 nonzeros
Model fingerprint: 0x94735103
Variable types: 0 continuous, 316 integer (270 binary)
Coefficient statistics:
  Matrix range     [1e+00, 1e+07]
  Objective range  [1e+00, 1e+00]
  Bounds range     [1e+00, 1e+00]
  RHS range        [1e+00, 3e+07]

Warning: Completing partial solution with 286 unfixed non-continuous variables out of 316
User MIP start did not produce a new incumbent solution
User MIP start violates constraint initial_start_time_job3_stage0_machine0_constraint by 1.000000000

Found heuristic solution: objective 155.0000000
Presolve removed 61 rows and 117 columns
Presolve time: 0.01s
Presolved: 402 rows, 199 columns, 1781 nonzeros
Variable types: 0 continuous, 199 integer (154 binary)
Found heuristic solution: objective 153.0000000

Root relaxation: objective 3.300000e+01, 59 iterations, 0.00 seconds (0.00 work units)

    Nodes    |    Current Node    |     Objective Bounds      |     Work
 Expl Unexpl |  Obj  Depth IntInf | Incumbent    BestBd   Gap | It/Node Time

     0     0   33.00000    0   16  153.00000   33.00000  78.4%     -    0s
H    0     0                     100.0000000   33.00000  67.0%     -    0s
H    0     0                      99.0000000   33.00000  66.7%     -    0s
H    0     0                      90.0000000   33.00000  63.3%     -    0s
     0     0   33.00000    0   10   90.00000   33.00000  63.3%     -    0s
H    0     0                      89.0000000   33.00000  62.9%     -    0s
     0     0   33.88715    0   27   89.00000   33.88715  61.9%     -    0s
H    0     0                      88.0000000   33.88715  61.5%     -    0s
     0     0   35.31187    0   27   88.00000   35.31187  59.9%     -    0s
     0     0   35.31187    0   29   88.00000   35.31187  59.9%     -    0s
     0     0   35.31187    0   35   88.00000   35.31187  59.9%     -    0s
     0     0   35.31187    0   39   88.00000   35.31187  59.9%     -    0s
     0     0   35.66875    0   35   88.00000   35.66875  59.5%     -    0s
     0     0   35.66875    0   35   88.00000   35.66875  59.5%     -    0s
     0     0   36.06699    0   37   88.00000   36.06699  59.0%     -    0s
     0     0   36.08127    0   36   88.00000   36.08127  59.0%     -    0s
     0     0   36.10619    0   39   88.00000   36.10619  59.0%     -    0s
     0     0   36.10619    0   34   88.00000   36.10619  59.0%     -    0s
     0     0   36.10625    0   32   88.00000   36.10625  59.0%     -    0s
     0     0   36.10625    0   35   88.00000   36.10625  59.0%     -    0s
H    0     0                      85.0000000   36.10625  57.5%     -    0s
     0     0   36.11150    0   32   85.00000   36.11150  57.5%     -    0s
     0     0   36.11150    0   33   85.00000   36.11150  57.5%     -    0s
     0     0   36.12121    0   41   85.00000   36.12121  57.5%     -    0s
H    0     0                      83.0000000   36.12121  56.5%     -    0s
H    0     0                      81.0000000   36.12121  55.4%     -    0s
     0     0   36.12121    0   35   81.00000   36.12121  55.4%     -    0s
     0     0   36.12121    0   40   81.00000   36.12121  55.4%     -    0s
     0     0   36.12121    0   40   81.00000   36.12121  55.4%     -    0s
H    0     0                      69.0000000   36.13561  47.6%     -    0s
     0     0   36.13561    0   17   69.00000   36.13561  47.6%     -    0s
     0     0   36.13561    0   30   69.00000   36.13561  47.6%     -    0s
     0     0   36.13854    0   41   69.00000   36.13854  47.6%     -    0s
     0     0   36.18513    0   52   69.00000   36.18513  47.6%     -    0s
     0     0   36.20469    0   49   69.00000   36.20469  47.5%     -    0s
     0     0   36.20538    0   56   69.00000   36.20538  47.5%     -    0s
     0     0   36.20538    0   51   69.00000   36.20538  47.5%     -    0s
     0     0   36.27561    0   39   69.00000   36.27561  47.4%     -    0s
     0     0   36.27561    0   40   69.00000   36.27561  47.4%     -    0s
     0     0   36.60870    0   43   69.00000   36.60870  46.9%     -    0s
     0     0   36.60870    0   44   69.00000   36.60870  46.9%     -    0s
     0     0   36.60870    0   45   69.00000   36.60870  46.9%     -    0s
     0     0   36.60870    0   20   69.00000   36.60870  46.9%     -    0s
     0     2   36.60870    0   18   69.00000   36.60870  46.9%     -    0s
H14491   310                      65.0000000   38.33055  41.0%   0.2    0s
H29048  5207                      64.0000000   46.74801  27.0%   4.0    1s

Cutting planes:
  Learned: 159
  Gomory: 57
  Cover: 17
  Implied bound: 2
  MIR: 74
  StrongCG: 50
  Flow cover: 220
  Inf proof: 41
  Zero half: 12
  RLT: 18
  Relax-and-lift: 4

Explored 64302 nodes (517887 simplex iterations) in 4.18 seconds (2.65 work units)
Thread count was 16 (of 16 available processors)

Solution count 10: 64 65 69 ... 99

Optimal solution found (tolerance 1.00e-04)
Best objective 6.400000000000e+01, best bound 6.400000000000e+01, gap 0.0000%
Warning: constraint name "precedence between 0,0 to 0,2 if x_[0,0,0,2,3]=0, i.e. 0,2 before 0,0" has a space
Warning: constraint name "precedence between 0,0 to 0,2 if x_[0,0,0,2,3]=0, i.e. 0,2 before 0,0" has a space
Warning: default constraint names used to write mps file
